
n_res = 8;
rcap = [50, 52, 55, 56, 708, 666, 714, 655];
rtype = [1, 1, 1, 1, 2, 2, 2, 2];
n_tasks = 50;
modes =  [{1, 2, 3}, {4, 5, 6}, {7, 8, 9}, {10, 11, 12}, {13, 14, 15}, {16, 17, 18}, {19, 20, 21}, {22, 23, 24}, {25, 26, 27}, {28, 29, 30}, {31, 32, 33}, {34, 35, 36}, {37, 38, 39}, {40, 41, 42}, {43, 44, 45}, {46, 47, 48}, {49, 50, 51}, {52, 53, 54}, {55, 56, 57}, {58, 59, 60}, {61, 62, 63}, {64, 65, 66}, {67, 68, 69}, {70, 71, 72}, {73, 74, 75}, {76, 77, 78}, {79, 80, 81}, {82, 83, 84}, {85, 86, 87}, {88, 89, 90}, {91, 92, 93}, {94, 95, 96}, {97, 98, 99}, {100, 101, 102}, {103, 104, 105}, {106, 107, 108}, {109, 110, 111}, {112, 113, 114}, {115, 116, 117}, {118, 119, 120}, {121, 122, 123}, {124, 125, 126}, {127, 128, 129}, {130, 131, 132}, {133, 134, 135}, {136, 137, 138}, {139, 140, 141}, {142, 143, 144}, {145, 146, 147}, {148, 149, 150}];
succ =  [{13, 11, 10, 9, 7}, {14, 13, 10, 9}, {14, 13, 10, 9}, {14, 10, 9}, {19, 14, 12, 10}, {16, 14, 9}, {25, 8}, {19, 17, 16, 15, 14}, {19, 17, 12}, {25, 17, 16, 15}, {25, 17, 16, 15}, {25, 21, 15}, {25, 22, 16}, {23, 22, 21, 20, 18}, {23, 22, 20, 18}, {23, 21, 18}, {32, 29, 26, 23, 21}, {33, 32, 31, 27, 26, 24}, {33, 29, 26, 23}, {36, 33, 31, 30, 29, 26}, {33, 31, 28, 27}, {33, 31, 28, 27}, {34, 31, 27}, {46, 38, 36, 35, 30, 29}, {50, 46, 36, 35, 34, 32}, {46, 35, 28}, {46, 39, 36, 35, 30}, {50, 45, 38, 37, 34}, {50, 37, 34}, {50, 42, 41, 40, 37}, {45, 42, 40, 38, 37}, {45, 42, 40, 38, 37}, {50, 46, 41, 40, 39}, {43, 41, 40, 39}, {45, 43, 42, 40}, {41, 40}, {48, 44, 43}, {49, 48, 47}, {48, 42}, {48, 47}, {49, 47}, {49}, {47}, {47}, {48}, {47}, {}, {}, {}, {}];
n_opt = 150;
dur = [7, 19, 26, 4, 5, 20, 8, 15, 16, 2, 16, 27, 5, 12, 19, 12, 24, 26, 6, 21, 26, 3, 13, 24, 11, 12, 13, 3, 18, 22, 4, 20, 29, 17, 18, 21, 4, 12, 29, 3, 7, 22, 1, 8, 23, 11, 26, 29, 15, 17, 28, 12, 14, 26, 4, 5, 12, 3, 24, 26, 1, 6, 28, 21, 27, 29, 4, 14, 23, 1, 25, 30, 16, 22, 26, 16, 26, 28, 3, 4, 27, 20, 21, 30, 12, 25, 29, 1, 9, 19, 1, 7, 21, 11, 14, 30, 4, 10, 11, 4, 11, 20, 3, 13, 21, 12, 13, 26, 1, 6, 8, 1, 3, 29, 9, 12, 23, 1, 3, 15, 7, 20, 21, 5, 11, 12, 4, 23, 30, 2, 29, 30, 2, 10, 24, 16, 17, 27, 3, 10, 19, 7, 17, 27, 1, 9, 13, 6, 27, 28];
rreq = [|11, 10, 8, 28, 27, 25, 20, 16, 6, 10, 10, 6, 24, 24, 23, 21, 18, 16, 5, 5, 3, 9, 8, 8, 25, 20, 18, 16, 15, 4, 26, 23, 22, 13, 8, 5, 4, 2, 1, 12, 10, 10, 16, 15, 15, 6, 5, 2, 26, 26, 24, 14, 14, 14, 25, 16, 13, 13, 7, 4, 24, 22, 15, 25, 23, 21, 26, 26, 23, 14, 9, 7, 13, 11, 11, 25, 25, 25, 14, 8, 7, 27, 13, 10, 15, 10, 6, 23, 20, 9, 15, 11, 10, 15, 11, 11, 6, 5, 5, 23, 21, 20, 16, 16, 10, 6, 5, 1, 22, 9, 3, 23, 20, 18, 23, 15, 13, 16, 11, 4, 10, 10, 10, 9, 8, 5, 29, 20, 20, 10, 8, 3, 18, 18, 18, 8, 8, 4, 22, 21, 21, 23, 23, 22, 19, 19, 18, 20, 17, 12
 |25, 24, 24, 20, 16, 14, 12, 12, 7, 18, 9, 9, 16, 15, 15, 27, 25, 20, 9, 6, 4, 24, 24, 24, 19, 14, 10, 14, 11, 6, 21, 15, 13, 23, 18, 6, 17, 13, 8, 21, 20, 10, 10, 7, 5, 17, 16, 16, 2, 1, 1, 18, 12, 11, 21, 20, 16, 27, 20, 17, 20, 20, 17, 24, 17, 16, 28, 18, 17, 11, 7, 2, 13, 13, 8, 21, 17, 17, 9, 7, 5, 3, 2, 2, 22, 20, 18, 21, 19, 15, 22, 20, 19, 15, 12, 8, 16, 11, 9, 7, 6, 6, 23, 18, 18, 26, 22, 21, 18, 12, 11, 28, 23, 14, 29, 22, 20, 14, 13, 12, 6, 5, 4, 16, 15, 14, 18, 12, 7, 22, 21, 20, 26, 20, 7, 20, 17, 11, 20, 14, 4, 18, 8, 4, 8, 8, 6, 17, 16, 16
 |30, 26, 20, 18, 17, 16, 25, 18, 11, 15, 15, 15, 6, 6, 2, 16, 14, 13, 17, 16, 8, 25, 21, 19, 18, 8, 1, 25, 25, 25, 29, 29, 29, 19, 17, 14, 14, 14, 14, 19, 12, 9, 29, 21, 18, 27, 12, 4, 25, 24, 24, 18, 15, 11, 12, 9, 6, 20, 14, 13, 24, 20, 15, 22, 17, 5, 19, 19, 15, 7, 5, 3, 19, 12, 9, 19, 16, 11, 14, 8, 8, 17, 17, 15, 30, 30, 30, 20, 16, 9, 27, 14, 11, 19, 13, 8, 23, 20, 14, 8, 7, 6, 13, 12, 11, 22, 21, 14, 29, 25, 25, 25, 21, 6, 16, 9, 4, 8, 7, 7, 19, 18, 13, 26, 17, 7, 24, 24, 23, 23, 12, 4, 25, 20, 18, 23, 19, 11, 14, 11, 7, 16, 10, 5, 19, 17, 10, 20, 20, 16
 |27, 18, 6, 28, 14, 10, 22, 17, 9, 17, 16, 3, 23, 11, 1, 21, 10, 8, 6, 6, 6, 28, 25, 21, 25, 24, 23, 27, 15, 7, 12, 10, 8, 25, 24, 22, 13, 9, 9, 27, 16, 4, 14, 11, 9, 19, 19, 19, 23, 22, 20, 24, 21, 19, 27, 27, 25, 24, 22, 20, 12, 9, 8, 25, 21, 11, 23, 23, 22, 18, 12, 10, 22, 20, 17, 19, 16, 13, 27, 23, 13, 18, 18, 17, 23, 16, 11, 27, 18, 4, 16, 15, 11, 24, 15, 14, 8, 8, 6, 21, 14, 13, 16, 15, 15, 7, 4, 2, 25, 14, 11, 28, 16, 9, 26, 19, 4, 29, 27, 24, 12, 10, 10, 8, 8, 8, 16, 8, 5, 18, 18, 18, 21, 12, 8, 4, 3, 2, 18, 14, 9, 14, 12, 9, 26, 25, 25, 17, 15, 5
 |7, 6, 3, 23, 23, 17, 25, 24, 24, 26, 25, 24, 27, 20, 17, 28, 25, 22, 5, 5, 1, 27, 11, 5, 15, 15, 15, 16, 13, 7, 14, 13, 12, 23, 18, 16, 27, 26, 25, 3, 2, 1, 11, 11, 10, 29, 12, 6, 20, 14, 10, 13, 12, 11, 9, 8, 6, 9, 8, 7, 27, 22, 18, 15, 12, 5, 27, 21, 13, 26, 19, 16, 18, 16, 8, 26, 26, 24, 27, 26, 24, 27, 19, 14, 11, 8, 7, 30, 23, 18, 11, 9, 8, 26, 15, 12, 16, 13, 6, 18, 17, 17, 23, 22, 18, 7, 6, 6, 16, 13, 4, 21, 10, 3, 27, 26, 24, 25, 25, 25, 18, 13, 1, 25, 24, 22, 20, 16, 11, 13, 12, 12, 21, 17, 15, 14, 7, 6, 24, 19, 13, 8, 5, 2, 12, 11, 10, 25, 25, 23
 |28, 26, 24, 19, 18, 15, 12, 11, 11, 23, 22, 22, 23, 16, 14, 20, 16, 15, 16, 15, 14, 23, 11, 6, 17, 14, 4, 22, 21, 10, 21, 9, 5, 20, 16, 14, 9, 5, 4, 12, 11, 9, 15, 11, 5, 10, 5, 5, 11, 5, 4, 29, 27, 26, 19, 12, 11, 21, 18, 16, 18, 9, 9, 23, 19, 11, 9, 7, 6, 19, 18, 18, 8, 5, 3, 24, 22, 18, 25, 22, 14, 27, 23, 22, 12, 8, 4, 24, 21, 17, 26, 15, 7, 21, 19, 18, 14, 11, 10, 9, 6, 4, 12, 9, 7, 27, 24, 22, 9, 8, 8, 21, 14, 12, 10, 10, 8, 24, 19, 5, 23, 22, 21, 17, 13, 7, 16, 10, 9, 24, 13, 11, 16, 16, 16, 18, 16, 10, 27, 24, 20, 24, 23, 21, 14, 13, 4, 13, 11, 5
 |21, 14, 12, 12, 9, 6, 21, 17, 16, 10, 6, 4, 24, 15, 9, 29, 29, 27, 27, 19, 13, 22, 18, 4, 2, 2, 2, 26, 25, 23, 10, 9, 7, 21, 16, 2, 21, 16, 8, 24, 22, 17, 27, 25, 25, 10, 6, 5, 24, 24, 21, 15, 10, 6, 28, 19, 18, 25, 10, 1, 26, 24, 23, 22, 17, 13, 25, 17, 11, 25, 19, 17, 16, 10, 1, 11, 11, 11, 26, 20, 14, 16, 13, 7, 27, 26, 26, 21, 18, 12, 17, 15, 14, 13, 11, 10, 27, 20, 12, 4, 2, 1, 19, 17, 16, 24, 19, 15, 28, 27, 26, 20, 10, 8, 24, 21, 21, 28, 15, 10, 19, 17, 12, 23, 22, 21, 4, 3, 2, 26, 25, 24, 12, 9, 8, 13, 9, 6, 30, 28, 25, 19, 15, 13, 14, 6, 4, 28, 20, 8
 |8, 7, 6, 8, 7, 7, 11, 11, 11, 24, 22, 20, 5, 5, 3, 18, 17, 7, 9, 7, 6, 17, 16, 13, 21, 17, 3, 6, 5, 5, 2, 2, 1, 28, 14, 10, 24, 19, 16, 14, 12, 10, 29, 27, 27, 20, 19, 17, 19, 12, 9, 28, 27, 26, 19, 15, 14, 22, 22, 22, 28, 19, 15, 16, 16, 16, 30, 12, 11, 5, 3, 3, 22, 20, 14, 12, 10, 5, 27, 11, 3, 15, 15, 15, 19, 15, 14, 26, 23, 19, 7, 3, 2, 16, 10, 4, 10, 6, 3, 28, 17, 8, 25, 24, 23, 28, 26, 24, 18, 10, 3, 19, 15, 14, 17, 17, 9, 18, 18, 16, 8, 7, 2, 18, 14, 8, 21, 14, 3, 26, 21, 19, 19, 19, 17, 10, 8, 5, 8, 8, 8, 23, 22, 22, 16, 14, 10, 30, 27, 27|];